H2O _2
0.52918   ! scaling parameter
 15 0 0
 0 15 0
 0 0 15
1 2
select
cart
      0.00     0.00     0.00 F F F
      1.10    -1.43     0.00 T T F
      1.10     1.43     0.00 T T F
