! B3LYP def2-SVP Opt PAL4

# My first ORCA calculation

*xyz 0 1
O        0.000000000      0.000000000      0.000000000
H        0.000000000      0.759337000      0.596043000
H        0.000000000     -0.759337000      0.596043000

*
